(set-logic QF_FPABV)
(declare-fun |c::main::1::IN!0@1#0| () (_ FP 8 24))
(define-fun .3 () RoundingMode roundNearestTiesToEven)
(define-fun .9 () (_ FP 8 24) |c::main::1::IN!0@1#0|)
(define-fun .11 () (_ FP 8 24) ((_ asFloat 8 24) roundTowardZero 0.800000011920928955078))
(define-fun .12 () Bool (< .9 .11))
(define-fun .14 () (_ FP 8 24) ((_ asFloat 8 24) roundTowardZero (- 0.800000011920928955078)))
(define-fun .15 () Bool (< .14 .9))
(define-fun .16 () Bool (and .12 .15))
(define-fun .17 () (_ FP 8 24) (* .3 .9 .9))
(define-fun .19 () (_ FP 8 24) ((_ asFloat 8 24) roundTowardZero 2.0))
(define-fun .20 () (_ FP 8 24) (/ .3 .17 .19))
(define-fun .21 () (_ FP 8 24) (- .20))
(define-fun .23 () (_ FP 8 24) ((_ asFloat 8 24) roundTowardZero 1.0))
(define-fun .24 () (_ FP 8 24) (+ .3 .21 .23))
(define-fun .25 () (_ FP 8 24) (* .3 .9 .17))
(define-fun .26 () (_ FP 8 24) (* .3 .9 .25))
(define-fun .28 () (_ FP 8 24) ((_ asFloat 8 24) roundTowardZero 24.0))
(define-fun .29 () (_ FP 8 24) (/ .3 .26 .28))
(define-fun .30 () (_ FP 8 24) (+ .3 .24 .29))
(define-fun .31 () (_ FP 8 24) (* .3 .9 .26))
(define-fun .32 () (_ FP 8 24) (* .3 .9 .31))
(define-fun .34 () (_ FP 8 24) ((_ asFloat 8 24) roundTowardZero 720.0))
(define-fun .35 () (_ FP 8 24) (/ .3 .32 .34))
(define-fun .36 () (_ FP 8 24) (+ .3 .30 .35))
(define-fun .38 () (_ FP 8 24) ((_ asFloat 8 24) roundTowardZero 6.0))
(define-fun .39 () (_ FP 8 24) (/ .3 .25 .38))
(define-fun .40 () (_ FP 8 24) (- .39))
(define-fun .41 () (_ FP 8 24) (+ .3 .9 .40))
(define-fun .43 () (_ FP 8 24) ((_ asFloat 8 24) roundTowardZero 120.0))
(define-fun .44 () (_ FP 8 24) (/ .3 .31 .43))
(define-fun .45 () (_ FP 8 24) (+ .3 .41 .44))
(define-fun .46 () (_ FP 8 24) (* .3 .9 .32))
(define-fun .48 () (_ FP 8 24) ((_ asFloat 8 24) roundTowardZero 5040.0))
(define-fun .49 () (_ FP 8 24) (/ .3 .46 .48))
(define-fun .50 () (_ FP 8 24) (+ .3 .45 .49))
(define-fun .51 () (_ FP 8 24) (/ .3 .50 .36))
(define-fun .52 () (_ FP 8 24) (- .51))
(define-fun .53 () (_ FP 8 24) (+ .3 .9 .52))
(define-fun .54 () (_ FP 11 53) ((_ asFloat 11 53) .3 .53))
(define-fun .56 () (_ FP 11 53) ((_ asFloat 11 53) roundTowardZero 0.100000000000000005551))
(define-fun .57 () Bool (< .54 .56))
(define-fun .58 () Bool (not .57))
(define-fun .59 () Bool (and .16 .58))
(assert .59)
(check-sat)
